
;this file is automatically generated: Fri Oct 30 17:04:05 CST 2020

;declarations generated

(declare-fun type_87e1019c_9c1f_432a_9f6e_cda79493b860_Class20 ( Int) Bool)
(declare-fun type_87e1019c_9c1f_432a_9f6e_cda79493b860_Class21 ( Int) Bool)
(declare-fun type_87e1019c_9c1f_432a_9f6e_cda79493b860_Class22 ( Int) Bool)
(declare-fun type_87e1019c_9c1f_432a_9f6e_cda79493b860_Class23 ( Int) Bool)
(declare-fun type_87e1019c_9c1f_432a_9f6e_cda79493b860_Class24 ( Int) Bool)
(declare-fun type_87e1019c_9c1f_432a_9f6e_cda79493b860_Class25 ( Int) Bool)
(declare-fun type_87e1019c_9c1f_432a_9f6e_cda79493b860_Class26 ( Int) Bool)
(declare-fun type_87e1019c_9c1f_432a_9f6e_cda79493b860_Class27 ( Int) Bool)
(declare-fun type_87e1019c_9c1f_432a_9f6e_cda79493b860_Class28 ( Int) Bool)
(declare-fun type_87e1019c_9c1f_432a_9f6e_cda79493b860_Class29 ( Int) Bool)
(declare-fun type_87e1019c_9c1f_432a_9f6e_cda79493b860_Class30 ( Int) Bool)
(declare-fun type_87e1019c_9c1f_432a_9f6e_cda79493b860_Class31 ( Int) Bool)
(declare-fun type_87e1019c_9c1f_432a_9f6e_cda79493b860_Class32 ( Int) Bool)
(declare-fun type_87e1019c_9c1f_432a_9f6e_cda79493b860_Class33 ( Int) Bool)
(declare-fun type_87e1019c_9c1f_432a_9f6e_cda79493b860_Class34 ( Int) Bool)
(declare-fun type_87e1019c_9c1f_432a_9f6e_cda79493b860_Class35 ( Int) Bool)
(declare-fun type_87e1019c_9c1f_432a_9f6e_cda79493b860_Class36 ( Int) Bool)
(declare-fun type_87e1019c_9c1f_432a_9f6e_cda79493b860_Class37 ( Int) Bool)
(declare-fun type_87e1019c_9c1f_432a_9f6e_cda79493b860_Class38 ( Int) Bool)
(declare-fun type_87e1019c_9c1f_432a_9f6e_cda79493b860_Class39 ( Int) Bool)
(declare-fun oclExcludes ( Int Int) Bool)
(declare-fun type_87e1019c_9c1f_432a_9f6e_cda79493b860_Class40 ( Int) Bool)
(declare-fun type_87e1019c_9c1f_432a_9f6e_cda79493b860_Class10 ( Int) Bool)
(declare-fun type_87e1019c_9c1f_432a_9f6e_cda79493b860_Class11 ( Int) Bool)
(declare-fun type_87e1019c_9c1f_432a_9f6e_cda79493b860_Class12 ( Int) Bool)
(declare-fun type_87e1019c_9c1f_432a_9f6e_cda79493b860_Class13 ( Int) Bool)
(declare-fun type_87e1019c_9c1f_432a_9f6e_cda79493b860_Class14 ( Int) Bool)
(declare-fun type_87e1019c_9c1f_432a_9f6e_cda79493b860_Class15 ( Int) Bool)
(declare-fun type_87e1019c_9c1f_432a_9f6e_cda79493b860_Class16 ( Int) Bool)
(declare-fun type_87e1019c_9c1f_432a_9f6e_cda79493b860_Class17 ( Int) Bool)
(declare-fun type_87e1019c_9c1f_432a_9f6e_cda79493b860_Class18 ( Int) Bool)
(declare-fun type_87e1019c_9c1f_432a_9f6e_cda79493b860_Class19 ( Int) Bool)
(declare-fun Cardinality ( Int) Int)
(declare-fun type_87e1019c_9c1f_432a_9f6e_cda79493b860_Class6 ( Int) Bool)
(declare-fun type_87e1019c_9c1f_432a_9f6e_cda79493b860_Class5 ( Int) Bool)
(declare-fun type_87e1019c_9c1f_432a_9f6e_cda79493b860_Class4 ( Int) Bool)
(declare-fun type_87e1019c_9c1f_432a_9f6e_cda79493b860_Class3 ( Int) Bool)
(declare-fun type_87e1019c_9c1f_432a_9f6e_cda79493b860_Class9 ( Int) Bool)
(declare-fun type_87e1019c_9c1f_432a_9f6e_cda79493b860_Class8 ( Int) Bool)
(declare-fun type_87e1019c_9c1f_432a_9f6e_cda79493b860_Class7 ( Int) Bool)
(declare-fun type_87e1019c_9c1f_432a_9f6e_cda79493b860_Class2 ( Int) Bool)
(declare-fun type_87e1019c_9c1f_432a_9f6e_cda79493b860_Class1 ( Int) Bool)
(declare-fun type_87e1019c_9c1f_432a_9f6e_cda79493b860_Class0 ( Int) Bool)
(declare-fun obj_afb104c1_1b91_4cbd_8328_422ee7df010f ( Int) Int)
(declare-fun type_87e1019c_9c1f_432a_9f6e_cda79493b860_Class41 ( Int) Bool)
(declare-fun type_87e1019c_9c1f_432a_9f6e_cda79493b860_Class42 ( Int) Bool)
(declare-fun type_87e1019c_9c1f_432a_9f6e_cda79493b860_Class43 ( Int) Bool)
(declare-fun type_87e1019c_9c1f_432a_9f6e_cda79493b860_Class44 ( Int) Bool)
(declare-fun type_87e1019c_9c1f_432a_9f6e_cda79493b860_Class45 ( Int) Bool)
(declare-fun type_87e1019c_9c1f_432a_9f6e_cda79493b860_Class46 ( Int) Bool)
(declare-fun type_87e1019c_9c1f_432a_9f6e_cda79493b860_Class47 ( Int) Bool)
(declare-fun type_87e1019c_9c1f_432a_9f6e_cda79493b860_Class48 ( Int) Bool)
(declare-fun type_87e1019c_9c1f_432a_9f6e_cda79493b860_Class49 ( Int) Bool)
(declare-fun type_87e1019c_9c1f_432a_9f6e_cda79493b860_Class50 ( Int) Bool)
(declare-fun type_87e1019c_9c1f_432a_9f6e_cda79493b860_Class51 ( Int) Bool)
(declare-fun type_87e1019c_9c1f_432a_9f6e_cda79493b860_Class52 ( Int) Bool)
(declare-fun type_87e1019c_9c1f_432a_9f6e_cda79493b860_Class53 ( Int) Bool)
(declare-fun type_87e1019c_9c1f_432a_9f6e_cda79493b860_Class54 ( Int) Bool)
(declare-fun type_87e1019c_9c1f_432a_9f6e_cda79493b860_Class55 ( Int) Bool)
(declare-fun oclSelect ( Int Bool) Int)
(declare-fun Enum0 ( Int) Int)
(declare-fun Enum1 ( Int) Int)
(declare-fun Enum2 ( Int) Int)
(declare-fun container_ ( Int) Int)
(declare-fun class50_Class50IntAttr1 ( Int) Int)
(declare-fun oclIncludes ( Int Int) Bool)
(declare-fun ObjAt ( Int Int) Int)

;formula(s) generated
(assert (! (forall ((v Int)) (=> (and (and (and (and (and (and (and (and ( type_87e1019c_9c1f_432a_9f6e_cda79493b860_Class50 v )  ( type_87e1019c_9c1f_432a_9f6e_cda79493b860_Class45 v ) ) ( type_87e1019c_9c1f_432a_9f6e_cda79493b860_Class12 v ) ) ( type_87e1019c_9c1f_432a_9f6e_cda79493b860_Class55 v ) ) ( type_87e1019c_9c1f_432a_9f6e_cda79493b860_Class33 v ) ) ( type_87e1019c_9c1f_432a_9f6e_cda79493b860_Class22 v ) ) ( type_87e1019c_9c1f_432a_9f6e_cda79493b860_Class29 v ) ) ( type_87e1019c_9c1f_432a_9f6e_cda79493b860_Class39 v ) ) ( type_87e1019c_9c1f_432a_9f6e_cda79493b860_Class41 v ) ) (< ( class50_Class50IntAttr1 ( obj_afb104c1_1b91_4cbd_8328_422ee7df010f v )  )  16))):named l0))
(assert (! (exists ((o Int)) ( type_87e1019c_9c1f_432a_9f6e_cda79493b860_Class0 ( obj_afb104c1_1b91_4cbd_8328_422ee7df010f o )  ) ):named c0))
(assert (! (exists ((o Int)) (and (and (and (and (and ( type_87e1019c_9c1f_432a_9f6e_cda79493b860_Class1 ( obj_afb104c1_1b91_4cbd_8328_422ee7df010f o )  )  ( type_87e1019c_9c1f_432a_9f6e_cda79493b860_Class45 ( obj_afb104c1_1b91_4cbd_8328_422ee7df010f o )  ) ) ( type_87e1019c_9c1f_432a_9f6e_cda79493b860_Class12 ( obj_afb104c1_1b91_4cbd_8328_422ee7df010f o )  ) ) ( type_87e1019c_9c1f_432a_9f6e_cda79493b860_Class33 ( obj_afb104c1_1b91_4cbd_8328_422ee7df010f o )  ) ) ( type_87e1019c_9c1f_432a_9f6e_cda79493b860_Class22 ( obj_afb104c1_1b91_4cbd_8328_422ee7df010f o )  ) ) ( type_87e1019c_9c1f_432a_9f6e_cda79493b860_Class39 ( obj_afb104c1_1b91_4cbd_8328_422ee7df010f o )  ) )):named c1))
(assert (! (exists ((o Int)) (and (and (and (and (and (and (and (and (and ( type_87e1019c_9c1f_432a_9f6e_cda79493b860_Class10 ( obj_afb104c1_1b91_4cbd_8328_422ee7df010f o )  )  ( type_87e1019c_9c1f_432a_9f6e_cda79493b860_Class45 ( obj_afb104c1_1b91_4cbd_8328_422ee7df010f o )  ) ) ( type_87e1019c_9c1f_432a_9f6e_cda79493b860_Class12 ( obj_afb104c1_1b91_4cbd_8328_422ee7df010f o )  ) ) ( type_87e1019c_9c1f_432a_9f6e_cda79493b860_Class55 ( obj_afb104c1_1b91_4cbd_8328_422ee7df010f o )  ) ) ( type_87e1019c_9c1f_432a_9f6e_cda79493b860_Class33 ( obj_afb104c1_1b91_4cbd_8328_422ee7df010f o )  ) ) ( type_87e1019c_9c1f_432a_9f6e_cda79493b860_Class22 ( obj_afb104c1_1b91_4cbd_8328_422ee7df010f o )  ) ) ( type_87e1019c_9c1f_432a_9f6e_cda79493b860_Class29 ( obj_afb104c1_1b91_4cbd_8328_422ee7df010f o )  ) ) ( type_87e1019c_9c1f_432a_9f6e_cda79493b860_Class39 ( obj_afb104c1_1b91_4cbd_8328_422ee7df010f o )  ) ) ( type_87e1019c_9c1f_432a_9f6e_cda79493b860_Class50 ( obj_afb104c1_1b91_4cbd_8328_422ee7df010f o )  ) ) ( type_87e1019c_9c1f_432a_9f6e_cda79493b860_Class41 ( obj_afb104c1_1b91_4cbd_8328_422ee7df010f o )  ) )):named c2))
(assert (! (exists ((o Int)) ( type_87e1019c_9c1f_432a_9f6e_cda79493b860_Class11 ( obj_afb104c1_1b91_4cbd_8328_422ee7df010f o )  ) ):named c3))
(assert (! (exists ((o Int)) (and (and (and ( type_87e1019c_9c1f_432a_9f6e_cda79493b860_Class12 ( obj_afb104c1_1b91_4cbd_8328_422ee7df010f o )  )  ( type_87e1019c_9c1f_432a_9f6e_cda79493b860_Class33 ( obj_afb104c1_1b91_4cbd_8328_422ee7df010f o )  ) ) ( type_87e1019c_9c1f_432a_9f6e_cda79493b860_Class22 ( obj_afb104c1_1b91_4cbd_8328_422ee7df010f o )  ) ) ( type_87e1019c_9c1f_432a_9f6e_cda79493b860_Class39 ( obj_afb104c1_1b91_4cbd_8328_422ee7df010f o )  ) )):named c4))
(assert (! (exists ((o Int)) (and (and (and (and (and (and (and (and (and ( type_87e1019c_9c1f_432a_9f6e_cda79493b860_Class13 ( obj_afb104c1_1b91_4cbd_8328_422ee7df010f o )  )  ( type_87e1019c_9c1f_432a_9f6e_cda79493b860_Class45 ( obj_afb104c1_1b91_4cbd_8328_422ee7df010f o )  ) ) ( type_87e1019c_9c1f_432a_9f6e_cda79493b860_Class12 ( obj_afb104c1_1b91_4cbd_8328_422ee7df010f o )  ) ) ( type_87e1019c_9c1f_432a_9f6e_cda79493b860_Class55 ( obj_afb104c1_1b91_4cbd_8328_422ee7df010f o )  ) ) ( type_87e1019c_9c1f_432a_9f6e_cda79493b860_Class33 ( obj_afb104c1_1b91_4cbd_8328_422ee7df010f o )  ) ) ( type_87e1019c_9c1f_432a_9f6e_cda79493b860_Class22 ( obj_afb104c1_1b91_4cbd_8328_422ee7df010f o )  ) ) ( type_87e1019c_9c1f_432a_9f6e_cda79493b860_Class29 ( obj_afb104c1_1b91_4cbd_8328_422ee7df010f o )  ) ) ( type_87e1019c_9c1f_432a_9f6e_cda79493b860_Class39 ( obj_afb104c1_1b91_4cbd_8328_422ee7df010f o )  ) ) ( type_87e1019c_9c1f_432a_9f6e_cda79493b860_Class50 ( obj_afb104c1_1b91_4cbd_8328_422ee7df010f o )  ) ) ( type_87e1019c_9c1f_432a_9f6e_cda79493b860_Class41 ( obj_afb104c1_1b91_4cbd_8328_422ee7df010f o )  ) )):named c5))
(assert (! (exists ((o Int)) (and (and (and (and (and (and (and (and (and ( type_87e1019c_9c1f_432a_9f6e_cda79493b860_Class14 ( obj_afb104c1_1b91_4cbd_8328_422ee7df010f o )  )  ( type_87e1019c_9c1f_432a_9f6e_cda79493b860_Class45 ( obj_afb104c1_1b91_4cbd_8328_422ee7df010f o )  ) ) ( type_87e1019c_9c1f_432a_9f6e_cda79493b860_Class12 ( obj_afb104c1_1b91_4cbd_8328_422ee7df010f o )  ) ) ( type_87e1019c_9c1f_432a_9f6e_cda79493b860_Class55 ( obj_afb104c1_1b91_4cbd_8328_422ee7df010f o )  ) ) ( type_87e1019c_9c1f_432a_9f6e_cda79493b860_Class33 ( obj_afb104c1_1b91_4cbd_8328_422ee7df010f o )  ) ) ( type_87e1019c_9c1f_432a_9f6e_cda79493b860_Class22 ( obj_afb104c1_1b91_4cbd_8328_422ee7df010f o )  ) ) ( type_87e1019c_9c1f_432a_9f6e_cda79493b860_Class29 ( obj_afb104c1_1b91_4cbd_8328_422ee7df010f o )  ) ) ( type_87e1019c_9c1f_432a_9f6e_cda79493b860_Class39 ( obj_afb104c1_1b91_4cbd_8328_422ee7df010f o )  ) ) ( type_87e1019c_9c1f_432a_9f6e_cda79493b860_Class50 ( obj_afb104c1_1b91_4cbd_8328_422ee7df010f o )  ) ) ( type_87e1019c_9c1f_432a_9f6e_cda79493b860_Class41 ( obj_afb104c1_1b91_4cbd_8328_422ee7df010f o )  ) )):named c6))
(assert (! (exists ((o Int)) ( type_87e1019c_9c1f_432a_9f6e_cda79493b860_Class15 ( obj_afb104c1_1b91_4cbd_8328_422ee7df010f o )  ) ):named c7))
(assert (! (exists ((o Int)) (and (and (and (and (and ( type_87e1019c_9c1f_432a_9f6e_cda79493b860_Class16 ( obj_afb104c1_1b91_4cbd_8328_422ee7df010f o )  )  ( type_87e1019c_9c1f_432a_9f6e_cda79493b860_Class45 ( obj_afb104c1_1b91_4cbd_8328_422ee7df010f o )  ) ) ( type_87e1019c_9c1f_432a_9f6e_cda79493b860_Class12 ( obj_afb104c1_1b91_4cbd_8328_422ee7df010f o )  ) ) ( type_87e1019c_9c1f_432a_9f6e_cda79493b860_Class33 ( obj_afb104c1_1b91_4cbd_8328_422ee7df010f o )  ) ) ( type_87e1019c_9c1f_432a_9f6e_cda79493b860_Class22 ( obj_afb104c1_1b91_4cbd_8328_422ee7df010f o )  ) ) ( type_87e1019c_9c1f_432a_9f6e_cda79493b860_Class39 ( obj_afb104c1_1b91_4cbd_8328_422ee7df010f o )  ) )):named c8))
(assert (! (exists ((o Int)) ( type_87e1019c_9c1f_432a_9f6e_cda79493b860_Class17 ( obj_afb104c1_1b91_4cbd_8328_422ee7df010f o )  ) ):named c9))
(assert (! (exists ((o Int)) (and (and (and ( type_87e1019c_9c1f_432a_9f6e_cda79493b860_Class18 ( obj_afb104c1_1b91_4cbd_8328_422ee7df010f o )  )  ( type_87e1019c_9c1f_432a_9f6e_cda79493b860_Class25 ( obj_afb104c1_1b91_4cbd_8328_422ee7df010f o )  ) ) ( type_87e1019c_9c1f_432a_9f6e_cda79493b860_Class24 ( obj_afb104c1_1b91_4cbd_8328_422ee7df010f o )  ) ) ( type_87e1019c_9c1f_432a_9f6e_cda79493b860_Class39 ( obj_afb104c1_1b91_4cbd_8328_422ee7df010f o )  ) )):named c10))
(assert (! (exists ((o Int)) (and (and (and (and (and (and (and (and (and ( type_87e1019c_9c1f_432a_9f6e_cda79493b860_Class19 ( obj_afb104c1_1b91_4cbd_8328_422ee7df010f o )  )  ( type_87e1019c_9c1f_432a_9f6e_cda79493b860_Class45 ( obj_afb104c1_1b91_4cbd_8328_422ee7df010f o )  ) ) ( type_87e1019c_9c1f_432a_9f6e_cda79493b860_Class12 ( obj_afb104c1_1b91_4cbd_8328_422ee7df010f o )  ) ) ( type_87e1019c_9c1f_432a_9f6e_cda79493b860_Class55 ( obj_afb104c1_1b91_4cbd_8328_422ee7df010f o )  ) ) ( type_87e1019c_9c1f_432a_9f6e_cda79493b860_Class33 ( obj_afb104c1_1b91_4cbd_8328_422ee7df010f o )  ) ) ( type_87e1019c_9c1f_432a_9f6e_cda79493b860_Class22 ( obj_afb104c1_1b91_4cbd_8328_422ee7df010f o )  ) ) ( type_87e1019c_9c1f_432a_9f6e_cda79493b860_Class29 ( obj_afb104c1_1b91_4cbd_8328_422ee7df010f o )  ) ) ( type_87e1019c_9c1f_432a_9f6e_cda79493b860_Class39 ( obj_afb104c1_1b91_4cbd_8328_422ee7df010f o )  ) ) ( type_87e1019c_9c1f_432a_9f6e_cda79493b860_Class50 ( obj_afb104c1_1b91_4cbd_8328_422ee7df010f o )  ) ) ( type_87e1019c_9c1f_432a_9f6e_cda79493b860_Class41 ( obj_afb104c1_1b91_4cbd_8328_422ee7df010f o )  ) )):named c11))
(assert (! (exists ((o Int)) ( type_87e1019c_9c1f_432a_9f6e_cda79493b860_Class2 ( obj_afb104c1_1b91_4cbd_8328_422ee7df010f o )  ) ):named c12))
(assert (! (exists ((o Int)) ( type_87e1019c_9c1f_432a_9f6e_cda79493b860_Class20 ( obj_afb104c1_1b91_4cbd_8328_422ee7df010f o )  ) ):named c13))
(assert (! (exists ((o Int)) (and (and (and (and (and (and (and (and (and ( type_87e1019c_9c1f_432a_9f6e_cda79493b860_Class21 ( obj_afb104c1_1b91_4cbd_8328_422ee7df010f o )  )  ( type_87e1019c_9c1f_432a_9f6e_cda79493b860_Class45 ( obj_afb104c1_1b91_4cbd_8328_422ee7df010f o )  ) ) ( type_87e1019c_9c1f_432a_9f6e_cda79493b860_Class12 ( obj_afb104c1_1b91_4cbd_8328_422ee7df010f o )  ) ) ( type_87e1019c_9c1f_432a_9f6e_cda79493b860_Class33 ( obj_afb104c1_1b91_4cbd_8328_422ee7df010f o )  ) ) ( type_87e1019c_9c1f_432a_9f6e_cda79493b860_Class22 ( obj_afb104c1_1b91_4cbd_8328_422ee7df010f o )  ) ) ( type_87e1019c_9c1f_432a_9f6e_cda79493b860_Class16 ( obj_afb104c1_1b91_4cbd_8328_422ee7df010f o )  ) ) ( type_87e1019c_9c1f_432a_9f6e_cda79493b860_Class29 ( obj_afb104c1_1b91_4cbd_8328_422ee7df010f o )  ) ) ( type_87e1019c_9c1f_432a_9f6e_cda79493b860_Class39 ( obj_afb104c1_1b91_4cbd_8328_422ee7df010f o )  ) ) ( type_87e1019c_9c1f_432a_9f6e_cda79493b860_Class41 ( obj_afb104c1_1b91_4cbd_8328_422ee7df010f o )  ) ) ( type_87e1019c_9c1f_432a_9f6e_cda79493b860_Class51 ( obj_afb104c1_1b91_4cbd_8328_422ee7df010f o )  ) )):named c14))
(assert (! (exists ((o Int)) (and ( type_87e1019c_9c1f_432a_9f6e_cda79493b860_Class22 ( obj_afb104c1_1b91_4cbd_8328_422ee7df010f o )  )  ( type_87e1019c_9c1f_432a_9f6e_cda79493b860_Class39 ( obj_afb104c1_1b91_4cbd_8328_422ee7df010f o )  ) )):named c15))
(assert (! (exists ((o Int)) (and (and (and (and ( type_87e1019c_9c1f_432a_9f6e_cda79493b860_Class23 ( obj_afb104c1_1b91_4cbd_8328_422ee7df010f o )  )  ( type_87e1019c_9c1f_432a_9f6e_cda79493b860_Class25 ( obj_afb104c1_1b91_4cbd_8328_422ee7df010f o )  ) ) ( type_87e1019c_9c1f_432a_9f6e_cda79493b860_Class24 ( obj_afb104c1_1b91_4cbd_8328_422ee7df010f o )  ) ) ( type_87e1019c_9c1f_432a_9f6e_cda79493b860_Class39 ( obj_afb104c1_1b91_4cbd_8328_422ee7df010f o )  ) ) ( type_87e1019c_9c1f_432a_9f6e_cda79493b860_Class5 ( obj_afb104c1_1b91_4cbd_8328_422ee7df010f o )  ) )):named c16))
(assert (! (exists ((o Int)) (and (and ( type_87e1019c_9c1f_432a_9f6e_cda79493b860_Class24 ( obj_afb104c1_1b91_4cbd_8328_422ee7df010f o )  )  ( type_87e1019c_9c1f_432a_9f6e_cda79493b860_Class25 ( obj_afb104c1_1b91_4cbd_8328_422ee7df010f o )  ) ) ( type_87e1019c_9c1f_432a_9f6e_cda79493b860_Class39 ( obj_afb104c1_1b91_4cbd_8328_422ee7df010f o )  ) )):named c17))
(assert (! (exists ((o Int)) (and ( type_87e1019c_9c1f_432a_9f6e_cda79493b860_Class25 ( obj_afb104c1_1b91_4cbd_8328_422ee7df010f o )  )  ( type_87e1019c_9c1f_432a_9f6e_cda79493b860_Class39 ( obj_afb104c1_1b91_4cbd_8328_422ee7df010f o )  ) )):named c18))
(assert (! (exists ((o Int)) ( type_87e1019c_9c1f_432a_9f6e_cda79493b860_Class26 ( obj_afb104c1_1b91_4cbd_8328_422ee7df010f o )  ) ):named c19))
(assert (! (exists ((o Int)) ( type_87e1019c_9c1f_432a_9f6e_cda79493b860_Class27 ( obj_afb104c1_1b91_4cbd_8328_422ee7df010f o )  ) ):named c20))
(assert (! (exists ((o Int)) (and (and (and (and (and (and (and ( type_87e1019c_9c1f_432a_9f6e_cda79493b860_Class28 ( obj_afb104c1_1b91_4cbd_8328_422ee7df010f o )  )  ( type_87e1019c_9c1f_432a_9f6e_cda79493b860_Class45 ( obj_afb104c1_1b91_4cbd_8328_422ee7df010f o )  ) ) ( type_87e1019c_9c1f_432a_9f6e_cda79493b860_Class12 ( obj_afb104c1_1b91_4cbd_8328_422ee7df010f o )  ) ) ( type_87e1019c_9c1f_432a_9f6e_cda79493b860_Class33 ( obj_afb104c1_1b91_4cbd_8328_422ee7df010f o )  ) ) ( type_87e1019c_9c1f_432a_9f6e_cda79493b860_Class22 ( obj_afb104c1_1b91_4cbd_8328_422ee7df010f o )  ) ) ( type_87e1019c_9c1f_432a_9f6e_cda79493b860_Class29 ( obj_afb104c1_1b91_4cbd_8328_422ee7df010f o )  ) ) ( type_87e1019c_9c1f_432a_9f6e_cda79493b860_Class39 ( obj_afb104c1_1b91_4cbd_8328_422ee7df010f o )  ) ) ( type_87e1019c_9c1f_432a_9f6e_cda79493b860_Class41 ( obj_afb104c1_1b91_4cbd_8328_422ee7df010f o )  ) )):named c21))
(assert (! (exists ((o Int)) (and (and (and (and (and (and ( type_87e1019c_9c1f_432a_9f6e_cda79493b860_Class29 ( obj_afb104c1_1b91_4cbd_8328_422ee7df010f o )  )  ( type_87e1019c_9c1f_432a_9f6e_cda79493b860_Class45 ( obj_afb104c1_1b91_4cbd_8328_422ee7df010f o )  ) ) ( type_87e1019c_9c1f_432a_9f6e_cda79493b860_Class12 ( obj_afb104c1_1b91_4cbd_8328_422ee7df010f o )  ) ) ( type_87e1019c_9c1f_432a_9f6e_cda79493b860_Class33 ( obj_afb104c1_1b91_4cbd_8328_422ee7df010f o )  ) ) ( type_87e1019c_9c1f_432a_9f6e_cda79493b860_Class22 ( obj_afb104c1_1b91_4cbd_8328_422ee7df010f o )  ) ) ( type_87e1019c_9c1f_432a_9f6e_cda79493b860_Class39 ( obj_afb104c1_1b91_4cbd_8328_422ee7df010f o )  ) ) ( type_87e1019c_9c1f_432a_9f6e_cda79493b860_Class41 ( obj_afb104c1_1b91_4cbd_8328_422ee7df010f o )  ) )):named c22))
(assert (! (exists ((o Int)) (and (and (and ( type_87e1019c_9c1f_432a_9f6e_cda79493b860_Class3 ( obj_afb104c1_1b91_4cbd_8328_422ee7df010f o )  )  ( type_87e1019c_9c1f_432a_9f6e_cda79493b860_Class25 ( obj_afb104c1_1b91_4cbd_8328_422ee7df010f o )  ) ) ( type_87e1019c_9c1f_432a_9f6e_cda79493b860_Class24 ( obj_afb104c1_1b91_4cbd_8328_422ee7df010f o )  ) ) ( type_87e1019c_9c1f_432a_9f6e_cda79493b860_Class39 ( obj_afb104c1_1b91_4cbd_8328_422ee7df010f o )  ) )):named c23))
(assert (! (exists ((o Int)) (and ( type_87e1019c_9c1f_432a_9f6e_cda79493b860_Class30 ( obj_afb104c1_1b91_4cbd_8328_422ee7df010f o )  )  ( type_87e1019c_9c1f_432a_9f6e_cda79493b860_Class39 ( obj_afb104c1_1b91_4cbd_8328_422ee7df010f o )  ) )):named c24))
(assert (! (exists ((o Int)) (and (and (and (and (and ( type_87e1019c_9c1f_432a_9f6e_cda79493b860_Class31 ( obj_afb104c1_1b91_4cbd_8328_422ee7df010f o )  )  ( type_87e1019c_9c1f_432a_9f6e_cda79493b860_Class45 ( obj_afb104c1_1b91_4cbd_8328_422ee7df010f o )  ) ) ( type_87e1019c_9c1f_432a_9f6e_cda79493b860_Class12 ( obj_afb104c1_1b91_4cbd_8328_422ee7df010f o )  ) ) ( type_87e1019c_9c1f_432a_9f6e_cda79493b860_Class33 ( obj_afb104c1_1b91_4cbd_8328_422ee7df010f o )  ) ) ( type_87e1019c_9c1f_432a_9f6e_cda79493b860_Class22 ( obj_afb104c1_1b91_4cbd_8328_422ee7df010f o )  ) ) ( type_87e1019c_9c1f_432a_9f6e_cda79493b860_Class39 ( obj_afb104c1_1b91_4cbd_8328_422ee7df010f o )  ) )):named c25))
(assert (! (exists ((o Int)) ( type_87e1019c_9c1f_432a_9f6e_cda79493b860_Class32 ( obj_afb104c1_1b91_4cbd_8328_422ee7df010f o )  ) ):named c26))
(assert (! (exists ((o Int)) (and (and ( type_87e1019c_9c1f_432a_9f6e_cda79493b860_Class33 ( obj_afb104c1_1b91_4cbd_8328_422ee7df010f o )  )  ( type_87e1019c_9c1f_432a_9f6e_cda79493b860_Class22 ( obj_afb104c1_1b91_4cbd_8328_422ee7df010f o )  ) ) ( type_87e1019c_9c1f_432a_9f6e_cda79493b860_Class39 ( obj_afb104c1_1b91_4cbd_8328_422ee7df010f o )  ) )):named c27))
(assert (! (exists ((o Int)) (and (and (and ( type_87e1019c_9c1f_432a_9f6e_cda79493b860_Class34 ( obj_afb104c1_1b91_4cbd_8328_422ee7df010f o )  )  ( type_87e1019c_9c1f_432a_9f6e_cda79493b860_Class25 ( obj_afb104c1_1b91_4cbd_8328_422ee7df010f o )  ) ) ( type_87e1019c_9c1f_432a_9f6e_cda79493b860_Class24 ( obj_afb104c1_1b91_4cbd_8328_422ee7df010f o )  ) ) ( type_87e1019c_9c1f_432a_9f6e_cda79493b860_Class39 ( obj_afb104c1_1b91_4cbd_8328_422ee7df010f o )  ) )):named c28))
(assert (! (exists ((o Int)) (and (and ( type_87e1019c_9c1f_432a_9f6e_cda79493b860_Class35 ( obj_afb104c1_1b91_4cbd_8328_422ee7df010f o )  )  ( type_87e1019c_9c1f_432a_9f6e_cda79493b860_Class39 ( obj_afb104c1_1b91_4cbd_8328_422ee7df010f o )  ) ) ( type_87e1019c_9c1f_432a_9f6e_cda79493b860_Class30 ( obj_afb104c1_1b91_4cbd_8328_422ee7df010f o )  ) )):named c29))
(assert (! (exists ((o Int)) ( type_87e1019c_9c1f_432a_9f6e_cda79493b860_Class36 ( obj_afb104c1_1b91_4cbd_8328_422ee7df010f o )  ) ):named c30))
(assert (! (exists ((o Int)) ( type_87e1019c_9c1f_432a_9f6e_cda79493b860_Class37 ( obj_afb104c1_1b91_4cbd_8328_422ee7df010f o )  ) ):named c31))
(assert (! (exists ((o Int)) ( type_87e1019c_9c1f_432a_9f6e_cda79493b860_Class38 ( obj_afb104c1_1b91_4cbd_8328_422ee7df010f o )  ) ):named c32))
(assert (! (exists ((o Int)) ( type_87e1019c_9c1f_432a_9f6e_cda79493b860_Class39 ( obj_afb104c1_1b91_4cbd_8328_422ee7df010f o )  ) ):named c33))
(assert (! (exists ((o Int)) ( type_87e1019c_9c1f_432a_9f6e_cda79493b860_Class4 ( obj_afb104c1_1b91_4cbd_8328_422ee7df010f o )  ) ):named c34))
(assert (! (exists ((o Int)) (and (and (and (and (and (and (and (and (and ( type_87e1019c_9c1f_432a_9f6e_cda79493b860_Class40 ( obj_afb104c1_1b91_4cbd_8328_422ee7df010f o )  )  ( type_87e1019c_9c1f_432a_9f6e_cda79493b860_Class45 ( obj_afb104c1_1b91_4cbd_8328_422ee7df010f o )  ) ) ( type_87e1019c_9c1f_432a_9f6e_cda79493b860_Class12 ( obj_afb104c1_1b91_4cbd_8328_422ee7df010f o )  ) ) ( type_87e1019c_9c1f_432a_9f6e_cda79493b860_Class55 ( obj_afb104c1_1b91_4cbd_8328_422ee7df010f o )  ) ) ( type_87e1019c_9c1f_432a_9f6e_cda79493b860_Class33 ( obj_afb104c1_1b91_4cbd_8328_422ee7df010f o )  ) ) ( type_87e1019c_9c1f_432a_9f6e_cda79493b860_Class22 ( obj_afb104c1_1b91_4cbd_8328_422ee7df010f o )  ) ) ( type_87e1019c_9c1f_432a_9f6e_cda79493b860_Class29 ( obj_afb104c1_1b91_4cbd_8328_422ee7df010f o )  ) ) ( type_87e1019c_9c1f_432a_9f6e_cda79493b860_Class39 ( obj_afb104c1_1b91_4cbd_8328_422ee7df010f o )  ) ) ( type_87e1019c_9c1f_432a_9f6e_cda79493b860_Class50 ( obj_afb104c1_1b91_4cbd_8328_422ee7df010f o )  ) ) ( type_87e1019c_9c1f_432a_9f6e_cda79493b860_Class41 ( obj_afb104c1_1b91_4cbd_8328_422ee7df010f o )  ) )):named c35))
(assert (! (exists ((o Int)) (and (and (and (and (and ( type_87e1019c_9c1f_432a_9f6e_cda79493b860_Class41 ( obj_afb104c1_1b91_4cbd_8328_422ee7df010f o )  )  ( type_87e1019c_9c1f_432a_9f6e_cda79493b860_Class45 ( obj_afb104c1_1b91_4cbd_8328_422ee7df010f o )  ) ) ( type_87e1019c_9c1f_432a_9f6e_cda79493b860_Class12 ( obj_afb104c1_1b91_4cbd_8328_422ee7df010f o )  ) ) ( type_87e1019c_9c1f_432a_9f6e_cda79493b860_Class33 ( obj_afb104c1_1b91_4cbd_8328_422ee7df010f o )  ) ) ( type_87e1019c_9c1f_432a_9f6e_cda79493b860_Class22 ( obj_afb104c1_1b91_4cbd_8328_422ee7df010f o )  ) ) ( type_87e1019c_9c1f_432a_9f6e_cda79493b860_Class39 ( obj_afb104c1_1b91_4cbd_8328_422ee7df010f o )  ) )):named c36))
(assert (! (exists ((o Int)) (and ( type_87e1019c_9c1f_432a_9f6e_cda79493b860_Class42 ( obj_afb104c1_1b91_4cbd_8328_422ee7df010f o )  )  ( type_87e1019c_9c1f_432a_9f6e_cda79493b860_Class39 ( obj_afb104c1_1b91_4cbd_8328_422ee7df010f o )  ) )):named c37))
(assert (! (exists ((o Int)) ( type_87e1019c_9c1f_432a_9f6e_cda79493b860_Class43 ( obj_afb104c1_1b91_4cbd_8328_422ee7df010f o )  ) ):named c38))
(assert (! (exists ((o Int)) (and (and (and (and (and (and (and ( type_87e1019c_9c1f_432a_9f6e_cda79493b860_Class44 ( obj_afb104c1_1b91_4cbd_8328_422ee7df010f o )  )  ( type_87e1019c_9c1f_432a_9f6e_cda79493b860_Class45 ( obj_afb104c1_1b91_4cbd_8328_422ee7df010f o )  ) ) ( type_87e1019c_9c1f_432a_9f6e_cda79493b860_Class12 ( obj_afb104c1_1b91_4cbd_8328_422ee7df010f o )  ) ) ( type_87e1019c_9c1f_432a_9f6e_cda79493b860_Class33 ( obj_afb104c1_1b91_4cbd_8328_422ee7df010f o )  ) ) ( type_87e1019c_9c1f_432a_9f6e_cda79493b860_Class22 ( obj_afb104c1_1b91_4cbd_8328_422ee7df010f o )  ) ) ( type_87e1019c_9c1f_432a_9f6e_cda79493b860_Class29 ( obj_afb104c1_1b91_4cbd_8328_422ee7df010f o )  ) ) ( type_87e1019c_9c1f_432a_9f6e_cda79493b860_Class39 ( obj_afb104c1_1b91_4cbd_8328_422ee7df010f o )  ) ) ( type_87e1019c_9c1f_432a_9f6e_cda79493b860_Class41 ( obj_afb104c1_1b91_4cbd_8328_422ee7df010f o )  ) )):named c39))
(assert (! (exists ((o Int)) (and (and (and (and ( type_87e1019c_9c1f_432a_9f6e_cda79493b860_Class45 ( obj_afb104c1_1b91_4cbd_8328_422ee7df010f o )  )  ( type_87e1019c_9c1f_432a_9f6e_cda79493b860_Class12 ( obj_afb104c1_1b91_4cbd_8328_422ee7df010f o )  ) ) ( type_87e1019c_9c1f_432a_9f6e_cda79493b860_Class33 ( obj_afb104c1_1b91_4cbd_8328_422ee7df010f o )  ) ) ( type_87e1019c_9c1f_432a_9f6e_cda79493b860_Class22 ( obj_afb104c1_1b91_4cbd_8328_422ee7df010f o )  ) ) ( type_87e1019c_9c1f_432a_9f6e_cda79493b860_Class39 ( obj_afb104c1_1b91_4cbd_8328_422ee7df010f o )  ) )):named c40))
(assert (! (exists ((o Int)) (and (and ( type_87e1019c_9c1f_432a_9f6e_cda79493b860_Class46 ( obj_afb104c1_1b91_4cbd_8328_422ee7df010f o )  )  ( type_87e1019c_9c1f_432a_9f6e_cda79493b860_Class39 ( obj_afb104c1_1b91_4cbd_8328_422ee7df010f o )  ) ) ( type_87e1019c_9c1f_432a_9f6e_cda79493b860_Class5 ( obj_afb104c1_1b91_4cbd_8328_422ee7df010f o )  ) )):named c41))
(assert (! (exists ((o Int)) ( type_87e1019c_9c1f_432a_9f6e_cda79493b860_Class47 ( obj_afb104c1_1b91_4cbd_8328_422ee7df010f o )  ) ):named c42))
(assert (! (exists ((o Int)) (and (and (and (and (and (and (and (and (and ( type_87e1019c_9c1f_432a_9f6e_cda79493b860_Class48 ( obj_afb104c1_1b91_4cbd_8328_422ee7df010f o )  )  ( type_87e1019c_9c1f_432a_9f6e_cda79493b860_Class45 ( obj_afb104c1_1b91_4cbd_8328_422ee7df010f o )  ) ) ( type_87e1019c_9c1f_432a_9f6e_cda79493b860_Class12 ( obj_afb104c1_1b91_4cbd_8328_422ee7df010f o )  ) ) ( type_87e1019c_9c1f_432a_9f6e_cda79493b860_Class55 ( obj_afb104c1_1b91_4cbd_8328_422ee7df010f o )  ) ) ( type_87e1019c_9c1f_432a_9f6e_cda79493b860_Class33 ( obj_afb104c1_1b91_4cbd_8328_422ee7df010f o )  ) ) ( type_87e1019c_9c1f_432a_9f6e_cda79493b860_Class22 ( obj_afb104c1_1b91_4cbd_8328_422ee7df010f o )  ) ) ( type_87e1019c_9c1f_432a_9f6e_cda79493b860_Class29 ( obj_afb104c1_1b91_4cbd_8328_422ee7df010f o )  ) ) ( type_87e1019c_9c1f_432a_9f6e_cda79493b860_Class39 ( obj_afb104c1_1b91_4cbd_8328_422ee7df010f o )  ) ) ( type_87e1019c_9c1f_432a_9f6e_cda79493b860_Class50 ( obj_afb104c1_1b91_4cbd_8328_422ee7df010f o )  ) ) ( type_87e1019c_9c1f_432a_9f6e_cda79493b860_Class41 ( obj_afb104c1_1b91_4cbd_8328_422ee7df010f o )  ) )):named c43))
(assert (! (exists ((o Int)) (and (and (and (and (and (and (and (and (and ( type_87e1019c_9c1f_432a_9f6e_cda79493b860_Class49 ( obj_afb104c1_1b91_4cbd_8328_422ee7df010f o )  )  ( type_87e1019c_9c1f_432a_9f6e_cda79493b860_Class45 ( obj_afb104c1_1b91_4cbd_8328_422ee7df010f o )  ) ) ( type_87e1019c_9c1f_432a_9f6e_cda79493b860_Class12 ( obj_afb104c1_1b91_4cbd_8328_422ee7df010f o )  ) ) ( type_87e1019c_9c1f_432a_9f6e_cda79493b860_Class55 ( obj_afb104c1_1b91_4cbd_8328_422ee7df010f o )  ) ) ( type_87e1019c_9c1f_432a_9f6e_cda79493b860_Class33 ( obj_afb104c1_1b91_4cbd_8328_422ee7df010f o )  ) ) ( type_87e1019c_9c1f_432a_9f6e_cda79493b860_Class22 ( obj_afb104c1_1b91_4cbd_8328_422ee7df010f o )  ) ) ( type_87e1019c_9c1f_432a_9f6e_cda79493b860_Class29 ( obj_afb104c1_1b91_4cbd_8328_422ee7df010f o )  ) ) ( type_87e1019c_9c1f_432a_9f6e_cda79493b860_Class39 ( obj_afb104c1_1b91_4cbd_8328_422ee7df010f o )  ) ) ( type_87e1019c_9c1f_432a_9f6e_cda79493b860_Class50 ( obj_afb104c1_1b91_4cbd_8328_422ee7df010f o )  ) ) ( type_87e1019c_9c1f_432a_9f6e_cda79493b860_Class41 ( obj_afb104c1_1b91_4cbd_8328_422ee7df010f o )  ) )):named c44))
(assert (! (exists ((o Int)) (and ( type_87e1019c_9c1f_432a_9f6e_cda79493b860_Class5 ( obj_afb104c1_1b91_4cbd_8328_422ee7df010f o )  )  ( type_87e1019c_9c1f_432a_9f6e_cda79493b860_Class39 ( obj_afb104c1_1b91_4cbd_8328_422ee7df010f o )  ) )):named c45))
(assert (! (exists ((o Int)) (and (and (and (and (and (and (and (and ( type_87e1019c_9c1f_432a_9f6e_cda79493b860_Class50 ( obj_afb104c1_1b91_4cbd_8328_422ee7df010f o )  )  ( type_87e1019c_9c1f_432a_9f6e_cda79493b860_Class45 ( obj_afb104c1_1b91_4cbd_8328_422ee7df010f o )  ) ) ( type_87e1019c_9c1f_432a_9f6e_cda79493b860_Class12 ( obj_afb104c1_1b91_4cbd_8328_422ee7df010f o )  ) ) ( type_87e1019c_9c1f_432a_9f6e_cda79493b860_Class55 ( obj_afb104c1_1b91_4cbd_8328_422ee7df010f o )  ) ) ( type_87e1019c_9c1f_432a_9f6e_cda79493b860_Class33 ( obj_afb104c1_1b91_4cbd_8328_422ee7df010f o )  ) ) ( type_87e1019c_9c1f_432a_9f6e_cda79493b860_Class22 ( obj_afb104c1_1b91_4cbd_8328_422ee7df010f o )  ) ) ( type_87e1019c_9c1f_432a_9f6e_cda79493b860_Class29 ( obj_afb104c1_1b91_4cbd_8328_422ee7df010f o )  ) ) ( type_87e1019c_9c1f_432a_9f6e_cda79493b860_Class39 ( obj_afb104c1_1b91_4cbd_8328_422ee7df010f o )  ) ) ( type_87e1019c_9c1f_432a_9f6e_cda79493b860_Class41 ( obj_afb104c1_1b91_4cbd_8328_422ee7df010f o )  ) )):named c46))
(assert (! (exists ((o Int)) (and (and (and (and (and (and ( type_87e1019c_9c1f_432a_9f6e_cda79493b860_Class51 ( obj_afb104c1_1b91_4cbd_8328_422ee7df010f o )  )  ( type_87e1019c_9c1f_432a_9f6e_cda79493b860_Class45 ( obj_afb104c1_1b91_4cbd_8328_422ee7df010f o )  ) ) ( type_87e1019c_9c1f_432a_9f6e_cda79493b860_Class12 ( obj_afb104c1_1b91_4cbd_8328_422ee7df010f o )  ) ) ( type_87e1019c_9c1f_432a_9f6e_cda79493b860_Class33 ( obj_afb104c1_1b91_4cbd_8328_422ee7df010f o )  ) ) ( type_87e1019c_9c1f_432a_9f6e_cda79493b860_Class22 ( obj_afb104c1_1b91_4cbd_8328_422ee7df010f o )  ) ) ( type_87e1019c_9c1f_432a_9f6e_cda79493b860_Class16 ( obj_afb104c1_1b91_4cbd_8328_422ee7df010f o )  ) ) ( type_87e1019c_9c1f_432a_9f6e_cda79493b860_Class39 ( obj_afb104c1_1b91_4cbd_8328_422ee7df010f o )  ) )):named c47))
(assert (! (exists ((o Int)) (and (and (and (and (and ( type_87e1019c_9c1f_432a_9f6e_cda79493b860_Class52 ( obj_afb104c1_1b91_4cbd_8328_422ee7df010f o )  )  ( type_87e1019c_9c1f_432a_9f6e_cda79493b860_Class45 ( obj_afb104c1_1b91_4cbd_8328_422ee7df010f o )  ) ) ( type_87e1019c_9c1f_432a_9f6e_cda79493b860_Class12 ( obj_afb104c1_1b91_4cbd_8328_422ee7df010f o )  ) ) ( type_87e1019c_9c1f_432a_9f6e_cda79493b860_Class33 ( obj_afb104c1_1b91_4cbd_8328_422ee7df010f o )  ) ) ( type_87e1019c_9c1f_432a_9f6e_cda79493b860_Class22 ( obj_afb104c1_1b91_4cbd_8328_422ee7df010f o )  ) ) ( type_87e1019c_9c1f_432a_9f6e_cda79493b860_Class39 ( obj_afb104c1_1b91_4cbd_8328_422ee7df010f o )  ) )):named c48))
(assert (! (exists ((o Int)) ( type_87e1019c_9c1f_432a_9f6e_cda79493b860_Class53 ( obj_afb104c1_1b91_4cbd_8328_422ee7df010f o )  ) ):named c49))
(assert (! (exists ((o Int)) ( type_87e1019c_9c1f_432a_9f6e_cda79493b860_Class54 ( obj_afb104c1_1b91_4cbd_8328_422ee7df010f o )  ) ):named c50))
(assert (! (exists ((o Int)) (and (and (and (and (and (and (and ( type_87e1019c_9c1f_432a_9f6e_cda79493b860_Class55 ( obj_afb104c1_1b91_4cbd_8328_422ee7df010f o )  )  ( type_87e1019c_9c1f_432a_9f6e_cda79493b860_Class45 ( obj_afb104c1_1b91_4cbd_8328_422ee7df010f o )  ) ) ( type_87e1019c_9c1f_432a_9f6e_cda79493b860_Class12 ( obj_afb104c1_1b91_4cbd_8328_422ee7df010f o )  ) ) ( type_87e1019c_9c1f_432a_9f6e_cda79493b860_Class33 ( obj_afb104c1_1b91_4cbd_8328_422ee7df010f o )  ) ) ( type_87e1019c_9c1f_432a_9f6e_cda79493b860_Class22 ( obj_afb104c1_1b91_4cbd_8328_422ee7df010f o )  ) ) ( type_87e1019c_9c1f_432a_9f6e_cda79493b860_Class29 ( obj_afb104c1_1b91_4cbd_8328_422ee7df010f o )  ) ) ( type_87e1019c_9c1f_432a_9f6e_cda79493b860_Class39 ( obj_afb104c1_1b91_4cbd_8328_422ee7df010f o )  ) ) ( type_87e1019c_9c1f_432a_9f6e_cda79493b860_Class41 ( obj_afb104c1_1b91_4cbd_8328_422ee7df010f o )  ) )):named c51))
(assert (! (exists ((o Int)) ( type_87e1019c_9c1f_432a_9f6e_cda79493b860_Class6 ( obj_afb104c1_1b91_4cbd_8328_422ee7df010f o )  ) ):named c52))
(assert (! (exists ((o Int)) (and (and (and (and (and (and (and (and (and ( type_87e1019c_9c1f_432a_9f6e_cda79493b860_Class7 ( obj_afb104c1_1b91_4cbd_8328_422ee7df010f o )  )  ( type_87e1019c_9c1f_432a_9f6e_cda79493b860_Class45 ( obj_afb104c1_1b91_4cbd_8328_422ee7df010f o )  ) ) ( type_87e1019c_9c1f_432a_9f6e_cda79493b860_Class12 ( obj_afb104c1_1b91_4cbd_8328_422ee7df010f o )  ) ) ( type_87e1019c_9c1f_432a_9f6e_cda79493b860_Class55 ( obj_afb104c1_1b91_4cbd_8328_422ee7df010f o )  ) ) ( type_87e1019c_9c1f_432a_9f6e_cda79493b860_Class33 ( obj_afb104c1_1b91_4cbd_8328_422ee7df010f o )  ) ) ( type_87e1019c_9c1f_432a_9f6e_cda79493b860_Class22 ( obj_afb104c1_1b91_4cbd_8328_422ee7df010f o )  ) ) ( type_87e1019c_9c1f_432a_9f6e_cda79493b860_Class29 ( obj_afb104c1_1b91_4cbd_8328_422ee7df010f o )  ) ) ( type_87e1019c_9c1f_432a_9f6e_cda79493b860_Class39 ( obj_afb104c1_1b91_4cbd_8328_422ee7df010f o )  ) ) ( type_87e1019c_9c1f_432a_9f6e_cda79493b860_Class50 ( obj_afb104c1_1b91_4cbd_8328_422ee7df010f o )  ) ) ( type_87e1019c_9c1f_432a_9f6e_cda79493b860_Class41 ( obj_afb104c1_1b91_4cbd_8328_422ee7df010f o )  ) )):named c53))
(assert (! (exists ((o Int)) (and ( type_87e1019c_9c1f_432a_9f6e_cda79493b860_Class8 ( obj_afb104c1_1b91_4cbd_8328_422ee7df010f o )  )  ( type_87e1019c_9c1f_432a_9f6e_cda79493b860_Class39 ( obj_afb104c1_1b91_4cbd_8328_422ee7df010f o )  ) )):named c54))
(assert (! (exists ((o Int)) ( type_87e1019c_9c1f_432a_9f6e_cda79493b860_Class9 ( obj_afb104c1_1b91_4cbd_8328_422ee7df010f o )  ) ):named c55))

 ;end of formula 